Route #1: 1 42 19 34 53 39 60 20 36 16 28 21 1
Route #2: 1 17 26 4 47 41 12 5 22 7 1
Route #3: 1 15 48 24 35 59 25 3 50 1
Route #4: 1 44 57 13 52 10 33 38 51 1
Route #5: 1 49 23 11 55 6 37 1
Route #6: 1 8 30 14 9 27 1
Route #7: 1 46 43 40 56 1
Route #8: 1 54 31 2 45 29 32 1
Route #9: 1 58 18 1
cost 1654.2528396600035